/*********************************************
 * OPL 22.1.0.0 Data
 * Author: Admin
 * Creation Date: 25-Sep-2022 at 3:35:08 PM
 *********************************************/
nbResidents = 7;
nbPatients = 12;
minPatients = 1;
maxPatients = 3;
maxLoad = 105;
patientData = [
   <59,2>,
   <57,2>, 
   <50,2>, 
   <49,1>,
   <47,1>,  
   <44,2>, 
   <42,2>, 
   <40,2>, 
   <39,2>, 
   <39,2>,
   <39,1>, 
   <39,1>
];
 
